HFSDDW
15	8	4
0	67	1	71	2	61	3	6
0	57	1	35	2	29	3	70
0	17	1	14	2	94	3	53
0	40	1	54	2	53	3	76
0	7	1	27	2	62	3	64
0	76	1	2	2	56	3	94
0	21	1	26	2	67	3	71
0	39	1	19	2	67	3	22
0	59	1	32	2	2	3	59
0	99	1	94	2	28	3	45
0	19	1	81	2	72	3	76
0	6	1	52	2	82	3	43
0	59	1	23	2	30	3	26
0	95	1	72	2	4	3	65
0	16	1	67	2	85	3	31
LBCmax: 495
RELDUE
-1	448	9	3
-1	421	8	8
-1	340	7	4
-1	539	3	2
-1	384	2	9
-1	464	4	3
-1	527	8	3
-1	269	4	4
-1	406	3	1
-1	528	9	7
-1	475	6	5
-1	281	7	3
-1	544	3	6
-1	298	7	9
-1	381	6	5
DDW
439	457
408	434
313	367
523	555
380	388
445	483
506	548
247	291
398	414
480	576
451	499
267	295
533	555
295	301
377	385
